Route #1: 14 19 25 33 12 18 4
Route #2: 9 38 15 5 29 20 23 1 31
Route #3: 2 22 3 7 16 32 10
Route #4: 17 24 35 37 34 26 11 8
Route #5: 21 30 13 28 27 36 6
Cost 822
Time 0.136007
Tempo = 0.15795259998412803